/*********************************************
 * OPL 12.6.0.0 Data
 * Author: Adrian Rodriguez Bazaga, Pau Rodriguez Esmerats
 * Creation Date: 06/12/2017 at 23:03:06
 *********************************************/

nNurses=255;
maxConsec=2;
maxPresence=7;
maxHours=5;
minHours=1;
hours=24;
demand= [43 39 61 60 39 61 60 44 40 24 3 9 6 13 10 8 7 6 7 4 29 66 41 49  ];
